branch-and-cut/resultados/I080/i080-124.sol
1555
8
7 65
2 65
8 65
3 65
6 65
1 65
5 65
4 65
